18441
1 0 1 1 0 1 0 0 1 1 0 1 0 1 1 1 0 1 0 0 1 0 1 0 1 0 0 0 0 0 
13 11 8 2 8 5 17 9 3 17 22 8 8 20 3 14 14 17 5 11 17 11 22 3 22 8 17 24 24 22 11 11 8 11 20 20 24 15 3 14 17 14 15 3 24 14 3 13 11 8 22 14 14 5 13 20 17 3 11 14 0 5 20 11 11 11 22 0 22 22 8 13 11 17 24 8 22 20 3 9 13 17 13 17 17 17 17 11 20 11 17 24 17 11 17 22 2 22 11 8 8 17 17 11 17 11 11 11 8 8 14 3 2 11 11 22 24 24 24 24 5 8 11 13 8 3 5 22 11 22 0 11 24 22 8 14 3 5 20 17 0 8 20 14 8 11 11 5 2 5 